200
100 100
1 80 592
2 80 900
3 79 78
4 79 379
5 78 631
6 78 51
7 78 895
8 78 295
9 78 190
10 77 254
11 77 188
12 77 411
13 76 411
14 76 3
15 76 755
16 76 813
17 75 769
18 75 740
19 75 900
20 74 701
21 74 417
22 74 203
23 74 39
24 73 58
25 73 605
26 73 256
27 73 869
28 73 596
29 72 232
30 72 85
31 71 853
32 71 916
33 71 807
34 71 1000
35 70 603
36 70 713
37 70 403
38 70 38
39 70 58
40 69 164
41 69 209
42 69 154
43 69 545
44 68 154
45 68 661
46 68 957
47 68 477
48 67 921
49 67 851
50 67 27
51 67 556
52 67 890
53 67 808
54 67 508
55 66 200
56 66 174
57 66 734
58 65 318
59 63 277
60 63 623
61 63 476
62 63 7
63 62 902
64 62 456
65 62 313
66 62 870
67 62 800
68 61 657
69 60 113
70 60 293
71 59 15
72 59 401
73 59 521
74 59 226
75 59 634
76 59 131
77 58 525
78 58 675
79 57 444
80 57 508
81 57 269
82 57 283
83 57 261
84 56 872
85 56 851
86 56 1000
87 55 141
88 55 209
89 54 220
90 54 363
91 54 662
92 54 410
93 54 247
94 54 352
95 53 229
96 53 184
97 53 467
98 52 927
99 52 604
100 52 568
101 51 725
102 51 25
103 51 892
104 51 553
105 50 465
106 50 47
107 50 680
108 49 99
109 49 751
110 49 465
111 48 61
112 48 993
113 47 787
114 47 317
115 47 282
116 47 205
117 47 108
118 47 996
119 46 859
120 46 123
121 46 885
122 46 396
123 45 271
124 45 44
125 45 82
126 45 897
127 45 625
128 45 851
129 45 697
130 44 88
131 44 602
132 44 29
133 44 412
134 44 321
135 43 335
136 43 948
137 43 233
138 43 526
139 43 471
140 43 108
141 43 829
142 42 945
143 42 638
144 42 689
145 42 731
146 42 720
147 41 733
148 41 477
149 40 448
150 40 176
151 40 558
152 39 831
153 39 607
154 39 727
155 39 914
156 39 250
157 38 450
158 38 248
159 38 790
160 37 602
161 37 693
162 36 474
163 36 3
164 36 264
165 35 101
166 35 669
167 34 539
168 34 875
169 34 131
170 34 417
171 33 715
172 33 538
173 32 350
174 32 653
175 32 532
176 31 807
177 31 126
178 30 900
179 30 511
180 29 662
181 29 469
182 29 354
183 28 966
184 28 346
185 27 827
186 27 743
187 26 875
188 26 265
189 26 284
190 26 215
191 25 268
192 25 502
193 24 747
194 24 517
195 24 834
196 24 149
197 22 503
198 21 308
199 21 193
200 20 81
